这是一个车辆路径规划问题。以下是问题的每个部分的详细解释：
NAME: 问题的名称。
TYPE: 问题的类型。
DIMENSION: 节点的数量（包括客户和仓库）。
VEHICLES: 可用车辆的数量。
CAPACITY: 每辆车的最大载重。
SERVICE_TIME: 每个客户的服务时间，这里是指定全部节点的服务时间，在一个问题中和SERVICE_TIME_SECTION只有一个。
EDGE_WEIGHT_TYPE: 边的权重类型，这里是 EUC_2D，表示使用欧几里得距离计算边的权重。
NODE_COORD_SECTION: 节点坐标部分，列出了每个节点的坐标（x, y）。例如，节点1的坐标是 (250, 250)，节点2的坐标是 (440, 436)，依此类推。
DEMAND_SECTION: 需求部分，列出了每个节点的需求量。例如，节点1的需求量是0，节点2的需求量是18，依此类推。
SERVICE_TIME_SECTION:服务时间，每个节点的服务时间，表示在该节点进行服务所需的时间。
TIME_WINDOW_SECTION: 时间窗口部分，列出了每个节点的可服务时间窗口。例如，节点1的时间窗口是 (0, 7284)，节点2的时间窗口是 (3544, 3711)，依此类推。
PRIZE_SECTION：奖赏，这一部分列出了每个节点的奖赏值，例如：节点1的奖赏是0。
VEHICLES_DEPOT_SECTION：车辆仓库信息，指定每辆车的出发仓库，通常是一个或多个仓库。
DEPOT_SECTION: 仓库部分，列出了仓库的节点编号，这里是 1，表示仓库位于节点1。
EOF表示文件的结束。
